p tw 320 1408
1 33
2 34
3 35
4 36
5 37
6 38
7 39
8 40
9 41
10 42
11 43
12 44
13 45
14 46
15 47
16 48
17 49
18 50
19 51
20 52
21 53
22 54
23 55
24 56
25 57
26 58
27 59
28 60
29 61
30 62
31 63
32 64
33 68
33 152
33 157
33 160
33 163
33 164
34 75
34 95
34 122
34 149
34 171
34 173
35 73
35 109
35 135
35 139
35 147
35 151
36 84
36 148
36 154
36 157
36 158
36 159
37 112
37 116
37 117
37 118
37 119
37 120
38 125
38 141
38 143
38 160
38 161
38 162
39 108
39 138
39 139
39 140
39 141
39 142
40 89
40 131
40 144
40 165
40 166
40 167
41 92
41 97
41 98
41 99
41 100
41 101
42 67
42 134
42 143
42 144
42 145
42 146
43 72
43 82
43 83
43 84
43 85
43 86
44 128
44 138
44 147
44 148
44 149
44 150
45 83
45 127
45 130
45 131
45 132
45 133
46 65
46 107
46 112
46 113
46 114
46 115
47 74
47 79
47 130
47 140
47 152
47 153
48 85
48 105
48 114
48 119
48 174
48 176
49 77
49 87
49 88
49 89
49 90
49 91
50 66
50 87
50 121
50 124
50 125
50 126
51 94
51 117
51 158
51 163
51 168
51 170
52 71
52 77
52 78
52 79
52 80
52 81
53 93
53 103
53 134
53 135
53 136
53 137
54 90
54 100
54 110
54 118
54 174
54 175
55 80
55 99
55 104
55 154
55 155
55 156
56 98
56 102
56 116
56 121
56 122
56 123
57 78
57 102
57 103
57 104
57 105
57 106
58 82
58 92
58 93
58 94
58 95
58 96
59 132
59 145
59 161
59 165
59 168
59 169
60 88
60 113
60 124
60 127
60 128
60 129
61 97
61 107
61 108
61 109
61 110
61 111
62 65
62 66
62 67
62 68
62 69
62 70
63 71
63 72
63 73
63 74
63 75
63 76
64 69
64 136
64 155
64 166
64 171
64 172
65 66
65 67
65 68
65 69
65 70
65 107
65 112
65 113
65 114
65 115
66 67
66 68
66 69
66 70
66 87
66 121
66 124
66 125
66 126
67 68
67 69
67 70
67 134
67 143
67 144
67 145
67 146
68 69
68 70
68 152
68 157
68 160
68 163
68 164
69 70
69 136
69 155
69 166
69 171
69 172
70 177
70 178
70 179
70 180
70 181
70 182
71 72
71 73
71 74
71 75
71 76
71 77
71 78
71 79
71 80
71 81
72 73
72 74
72 75
72 76
72 82
72 83
72 84
72 85
72 86
73 74
73 75
73 76
73 109
73 135
73 139
73 147
73 151
74 75
74 76
74 79
74 130
74 140
74 152
74 153
75 76
75 95
75 122
75 149
75 171
75 173
76 183
76 184
76 185
76 186
76 187
76 188
77 78
77 79
77 80
77 81
77 87
77 88
77 89
77 90
77 91
78 79
78 80
78 81
78 102
78 103
78 104
78 105
78 106
79 80
79 81
79 130
79 140
79 152
79 153
80 81
80 99
80 104
80 154
80 155
80 156
81 183
81 189
81 190
81 191
81 192
81 193
82 83
82 84
82 85
82 86
82 92
82 93
82 94
82 95
82 96
83 84
83 85
83 86
83 127
83 130
83 131
83 132
83 133
84 85
84 86
84 148
84 154
84 157
84 158
84 159
85 86
85 105
85 114
85 119
85 174
85 176
86 184
86 194
86 195
86 196
86 197
86 198
87 88
87 89
87 90
87 91
87 121
87 124
87 125
87 126
88 89
88 90
88 91
88 113
88 124
88 127
88 128
88 129
89 90
89 91
89 131
89 144
89 165
89 166
89 167
90 91
90 100
90 110
90 118
90 174
90 175
91 189
91 199
91 200
91 201
91 202
91 203
92 93
92 94
92 95
92 96
92 97
92 98
92 99
92 100
92 101
93 94
93 95
93 96
93 103
93 134
93 135
93 136
93 137
94 95
94 96
94 117
94 158
94 163
94 168
94 170
95 96
95 122
95 149
95 171
95 173
96 194
96 204
96 205
96 206
96 207
96 208
97 98
97 99
97 100
97 101
97 107
97 108
97 109
97 110
97 111
98 99
98 100
98 101
98 102
98 116
98 121
98 122
98 123
99 100
99 101
99 104
99 154
99 155
99 156
100 101
100 110
100 118
100 174
100 175
101 204
101 209
101 210
101 211
101 212
101 213
102 103
102 104
102 105
102 106
102 116
102 121
102 122
102 123
103 104
103 105
103 106
103 134
103 135
103 136
103 137
104 105
104 106
104 154
104 155
104 156
105 106
105 114
105 119
105 174
105 176
106 190
106 214
106 215
106 216
106 217
106 218
107 108
107 109
107 110
107 111
107 112
107 113
107 114
107 115
108 109
108 110
108 111
108 138
108 139
108 140
108 141
108 142
109 110
109 111
109 135
109 139
109 147
109 151
110 111
110 118
110 174
110 175
111 209
111 219
111 220
111 221
111 222
111 223
112 113
112 114
112 115
112 116
112 117
112 118
112 119
112 120
113 114
113 115
113 124
113 127
113 128
113 129
114 115
114 119
114 174
114 176
115 177
115 219
115 224
115 225
115 226
115 227
116 117
116 118
116 119
116 120
116 121
116 122
116 123
117 118
117 119
117 120
117 158
117 163
117 168
117 170
118 119
118 120
118 174
118 175
119 120
119 174
119 176
120 224
120 228
120 229
120 230
120 231
120 232
121 122
121 123
121 124
121 125
121 126
122 123
122 149
122 171
122 173
123 210
123 214
123 228
123 233
123 234
123 235
124 125
124 126
124 127
124 128
124 129
125 126
125 141
125 143
125 160
125 161
125 162
126 178
126 199
126 233
126 236
126 237
126 238
127 128
127 129
127 130
127 131
127 132
127 133
128 129
128 138
128 147
128 148
128 149
128 150
129 200
129 225
129 236
129 239
129 240
129 241
130 131
130 132
130 133
130 140
130 152
130 153
131 132
131 133
131 144
131 165
131 166
131 167
132 133
132 145
132 161
132 165
132 168
132 169
133 195
133 239
133 242
133 243
133 244
133 245
134 135
134 136
134 137
134 143
134 144
134 145
134 146
135 136
135 137
135 139
135 147
135 151
136 137
136 155
136 166
136 171
136 172
137 205
137 215
137 246
137 247
137 248
137 249
138 139
138 140
138 141
138 142
138 147
138 148
138 149
138 150
139 140
139 141
139 142
139 147
139 151
140 141
140 142
140 152
140 153
141 142
141 143
141 160
141 161
141 162
142 220
142 250
142 251
142 252
142 253
142 254
143 144
143 145
143 146
143 160
143 161
143 162
144 145
144 146
144 165
144 166
144 167
145 146
145 161
145 165
145 168
145 169
146 179
146 246
146 255
146 256
146 257
146 258
147 148
147 149
147 150
147 151
148 149
148 150
148 154
148 157
148 158
148 159
149 150
149 171
149 173
150 240
150 250
150 259
150 260
150 261
150 262
151 185
151 221
151 247
151 251
151 259
151 263
152 153
152 157
152 160
152 163
152 164
153 186
153 191
153 242
153 252
153 264
153 265
154 155
154 156
154 157
154 158
154 159
155 156
155 166
155 171
155 172
156 192
156 211
156 216
156 266
156 267
156 268
157 158
157 159
157 160
157 163
157 164
158 159
158 163
158 168
158 170
159 196
159 260
159 266
159 269
159 270
159 271
160 161
160 162
160 163
160 164
161 162
161 165
161 168
161 169
162 237
162 253
162 255
162 272
162 273
162 274
163 164
163 168
163 170
164 180
164 264
164 269
164 272
164 275
164 276
165 166
165 167
165 168
165 169
166 167
166 171
166 172
167 201
167 243
167 256
167 277
167 278
167 279
168 169
168 170
169 244
169 257
169 273
169 277
169 280
169 281
170 206
170 229
170 270
170 275
170 280
170 282
171 172
171 173
172 181
172 248
172 267
172 278
172 283
172 284
173 187
173 207
173 234
173 261
173 283
173 285
174 175
174 176
175 202
175 212
175 222
175 230
175 286
175 287
176 197
176 217
176 226
176 231
176 286
176 288
177 178
177 179
177 180
177 181
177 182
177 219
177 224
177 225
177 226
177 227
178 179
178 180
178 181
178 182
178 199
178 233
178 236
178 237
178 238
179 180
179 181
179 182
179 246
179 255
179 256
179 257
179 258
180 181
180 182
180 264
180 269
180 272
180 275
180 276
181 182
181 248
181 267
181 278
181 283
181 284
182 291
183 184
183 185
183 186
183 187
183 188
183 189
183 190
183 191
183 192
183 193
184 185
184 186
184 187
184 188
184 194
184 195
184 196
184 197
184 198
185 186
185 187
185 188
185 221
185 247
185 251
185 259
185 263
186 187
186 188
186 191
186 242
186 252
186 264
186 265
187 188
187 207
187 234
187 261
187 283
187 285
188 290
189 190
189 191
189 192
189 193
189 199
189 200
189 201
189 202
189 203
190 191
190 192
190 193
190 214
190 215
190 216
190 217
190 218
191 192
191 193
191 242
191 252
191 264
191 265
192 193
192 211
192 216
192 266
192 267
192 268
193 301
194 195
194 196
194 197
194 198
194 204
194 205
194 206
194 207
194 208
195 196
195 197
195 198
195 239
195 242
195 243
195 244
195 245
196 197
196 198
196 260
196 266
196 269
196 270
196 271
197 198
197 217
197 226
197 231
197 286
197 288
198 310
199 200
199 201
199 202
199 203
199 233
199 236
199 237
199 238
200 201
200 202
200 203
200 225
200 236
200 239
200 240
200 241
201 202
201 203
201 243
201 256
201 277
201 278
201 279
202 203
202 212
202 222
202 230
202 286
202 287
203 304
204 205
204 206
204 207
204 208
204 209
204 210
204 211
204 212
204 213
205 206
205 207
205 208
205 215
205 246
205 247
205 248
205 249
206 207
206 208
206 229
206 270
206 275
206 280
206 282
207 208
207 234
207 261
207 283
207 285
208 295
209 210
209 211
209 212
209 213
209 219
209 220
209 221
209 222
209 223
210 211
210 212
210 213
210 214
210 228
210 233
210 234
210 235
211 212
211 213
211 216
211 266
211 267
211 268
212 213
212 222
212 230
212 286
212 287
213 312
214 215
214 216
214 217
214 218
214 228
214 233
214 234
214 235
215 216
215 217
215 218
215 246
215 247
215 248
215 249
216 217
216 218
216 266
216 267
216 268
217 218
217 226
217 231
217 286
217 288
218 296
219 220
219 221
219 222
219 223
219 224
219 225
219 226
219 227
220 221
220 222
220 223
220 250
220 251
220 252
220 253
220 254
221 222
221 223
221 247
221 251
221 259
221 263
222 223
222 230
222 286
222 287
223 292
224 225
224 226
224 227
224 228
224 229
224 230
224 231
224 232
225 226
225 227
225 236
225 239
225 240
225 241
226 227
226 231
226 286
226 288
227 307
228 229
228 230
228 231
228 232
228 233
228 234
228 235
229 230
229 231
229 232
229 270
229 275
229 280
229 282
230 231
230 232
230 286
230 287
231 232
231 286
231 288
232 316
233 234
233 235
233 236
233 237
233 238
234 235
234 261
234 283
234 285
235 297
236 237
236 238
236 239
236 240
236 241
237 238
237 253
237 255
237 272
237 273
237 274
238 303
239 240
239 241
239 242
239 243
239 244
239 245
240 241
240 250
240 259
240 260
240 261
240 262
241 293
242 243
242 244
242 245
242 252
242 264
242 265
243 244
243 245
243 256
243 277
243 278
243 279
244 245
244 257
244 273
244 277
244 280
244 281
245 308
246 247
246 248
246 249
246 255
246 256
246 257
246 258
247 248
247 249
247 251
247 259
247 263
248 249
248 267
248 278
248 283
248 284
249 300
250 251
250 252
250 253
250 254
250 259
250 260
250 261
250 262
251 252
251 253
251 254
251 259
251 263
252 253
252 254
252 264
252 265
253 254
253 255
253 272
253 273
253 274
254 314
255 256
255 257
255 258
255 272
255 273
255 274
256 257
256 258
256 277
256 278
256 279
257 258
257 273
257 277
257 280
257 281
258 311
259 260
259 261
259 262
259 263
260 261
260 262
260 266
260 269
260 270
260 271
261 262
261 283
261 285
262 309
263 318
264 265
264 269
264 272
264 275
264 276
265 306
266 267
266 268
266 269
266 270
266 271
267 268
267 278
267 283
267 284
268 298
269 270
269 271
269 272
269 275
269 276
270 271
270 275
270 280
270 282
271 317
272 273
272 274
272 275
272 276
273 274
273 277
273 280
273 281
274 315
275 276
275 280
275 282
276 320
277 278
277 279
277 280
277 281
278 279
278 283
278 284
279 313
280 281
280 282
281 294
282 302
283 284
283 285
284 289
285 319
286 287
286 288
287 299
288 305
